1192
1683
582
1872
1299
86
2096
1127
1098
1886
2045
791
1519
1159
1203
1553
1158
1958
1761
964
203
1512
417
1079
614
501
1303
1625
1069
1050
1419
1280
2151
1149
857
1495
1821
2203
1285
2023
1378
277
2077
689
382
1032
809
704
1167
712
